************************************************************************
file with basedata            : J1203_.BAS
initial value random generator: 2094613678
************************************************************************
projects                      :  1
jobs (incl. supersource/sink ):  122
horizon                       :  640
RESOURCES
  - renewable                 :  4   R
  - nonrenewable              :  0   N
  - doubly constrained        :  0   D
************************************************************************
PROJECT INFORMATION:
pronr.  #jobs rel.date duedate tardcost  MPM-Time
    1    120      0      102        4      102
************************************************************************
PRECEDENCE RELATIONS:
jobnr.    #modes  #successors   successors
   1        1          3           2   3   4
   2        1          2          19  44
   3        1          3          11  51  53
   4        1          3           5  24  89
   5        1          3           6   8   9
   6        1          3           7  10  39
   7        1          3          15  23  25
   8        1          1          18
   9        1          3          13  14  16
  10        1          3          12  21  28
  11        1          3          18  45  75
  12        1          3          36  54  73
  13        1          3          27  40  72
  14        1          3          50  84 121
  15        1          2          32 103
  16        1          3          17  20  26
  17        1          1          57
  18        1          2          34  41
  19        1          3          22  55  60
  20        1          1          30
  21        1          3          35  57 107
  22        1          3          83  87  97
  23        1          3          42  43  46
  24        1          1          99
  25        1          3          29  33  38
  26        1          2          37  58
  27        1          1          61
  28        1          2          47  49
  29        1          1         115
  30        1          3          31  69  76
  31        1          1          42
  32        1          2          47  54
  33        1          1          86
  34        1          1          81
  35        1          1          68
  36        1          1          80
  37        1          2          70 104
  38        1          3          92 118 120
  39        1          3          48  63 100
  40        1          1          56
  41        1          1         102
  42        1          1          64
  43        1          2          98 107
  44        1          2          78 104
  45        1          3          85  93 117
  46        1          1          98
  47        1          1          79
  48        1          1          66
  49        1          1          52
  50        1          1          70
  51        1          1          59
  52        1          1          70
  53        1          1          65
  54        1          1          83
  55        1          1         104
  56        1          1         117
  57        1          1          77
  58        1          1         118
  59        1          2          88 101
  60        1          2          97 103
  61        1          1          62
  62        1          1          90
  63        1          2          65  67
  64        1          1          68
  65        1          1          81
  66        1          1          90
  67        1          1          71
  68        1          3          74  91 106
  69        1          1         116
  70        1          2          82 114
  71        1          1         115
  72        1          1         112
  73        1          1          78
  74        1          1         113
  75        1          1          96
  76        1          1          79
  77        1          1         110
  78        1          1          85
  79        1          1          88
  80        1          1         112
  81        1          1          88
  82        1          1         102
  83        1          1          84
  84        1          1          94
  85        1          1          94
  86        1          1          97
  87        1          1          99
  88        1          1          93
  89        1          1         101
  90        1          2          94  95
  91        1          1          98
  92        1          1         108
  93        1          1          95
  94        1          1         102
  95        1          1         105
  96        1          1         106
  97        1          1         113
  98        1          1         103
  99        1          1         105
 100        1          1         105
 101        1          1         107
 102        1          1         111
 103        1          1         114
 104        1          2         114 119
 105        1          1         109
 106        1          1         118
 107        1          1         120
 108        1          1         110
 109        1          1         110
 110        1          1         121
 111        1          2         112 113
 112        1          1         116
 113        1          1         115
 114        1          1         116
 115        1          1         119
 116        1          1         120
 117        1          1         121
 118        1          1         119
 119        1          1         122
 120        1          1         122
 121        1          1         122
 122        1          0        
************************************************************************
REQUESTS/DURATIONS:
jobnr. mode duration  R 1  R 2  R 3  R 4
------------------------------------------------------------------------
  1      1     0       0    0    0    0
  2      1     5       0    7    0    0
  3      1     6       0    7    0    0
  4      1     6       0    0    3    0
  5      1     6       0    0    0    7
  6      1     2       0    1    0    0
  7      1     2       0    0    0    1
  8      1    10       0    0    0    7
  9      1    10       0    0   10    0
 10      1     4       0    0    6    0
 11      1     9       0    0    4    0
 12      1     8       0    0    0    8
 13      1     1       9    0    0    0
 14      1     3       0    3    0    0
 15      1     7       0    0    6    0
 16      1     7      10    0    0    0
 17      1     1       0    0    0   10
 18      1     9       2    0    0    0
 19      1     9       0    0    3    0
 20      1     4      10    0    0    0
 21      1     7       0    0    0    5
 22      1     6       0    0    7    0
 23      1     6       0    0    0    5
 24      1     4       0    0    6    0
 25      1     9       7    0    0    0
 26      1     5       0    4    0    0
 27      1    10       0    7    0    0
 28      1     9       0    0    0   10
 29      1     2       3    0    0    0
 30      1     3       0    0    2    0
 31      1    10       5    0    0    0
 32      1     7       0    0    0    3
 33      1     7       0    0    0   10
 34      1     6       5    0    0    0
 35      1     2      10    0    0    0
 36      1     7       0    6    0    0
 37      1     4      10    0    0    0
 38      1     5       0    2    0    0
 39      1     5       0    3    0    0
 40      1     6       0    0    7    0
 41      1     1       0    0    0    6
 42      1     2       0    7    0    0
 43      1     7       0    0    3    0
 44      1     3       0    0    0    2
 45      1     3       0    7    0    0
 46      1     2       0    4    0    0
 47      1     6       0    0    0   10
 48      1     6       0    0    0    7
 49      1     3       0    2    0    0
 50      1     9       0    0    1    0
 51      1     9       0    4    0    0
 52      1     1       0    0    0   10
 53      1     6       0    9    0    0
 54      1     8       0    0    6    0
 55      1    10       0    0    0    5
 56      1     8       0    0    0    6
 57      1     1       0    0    0    2
 58      1     8      10    0    0    0
 59      1     2       0    0    0    2
 60      1     1       2    0    0    0
 61      1     2       6    0    0    0
 62      1     2       0    0    7    0
 63      1     6       0    0   10    0
 64      1     5       0    0    9    0
 65      1     9       0    0    0    6
 66      1     5       0    9    0    0
 67      1     7       0    0    0    5
 68      1     1       0    0    0    8
 69      1    10       2    0    0    0
 70      1     6       0    0    0    5
 71      1     6       0    5    0    0
 72      1     3       1    0    0    0
 73      1    10       0   10    0    0
 74      1     8       1    0    0    0
 75      1     1       0    0    0    1
 76      1     3       0    0    0    1
 77      1     9       6    0    0    0
 78      1     7       0    0    0    5
 79      1     4       0   10    0    0
 80      1     2       0   10    0    0
 81      1     1       6    0    0    0
 82      1     5       6    0    0    0
 83      1     6       0    5    0    0
 84      1     1       0   10    0    0
 85      1     6       9    0    0    0
 86      1     9       0    9    0    0
 87      1     9       9    0    0    0
 88      1     1       5    0    0    0
 89      1     1       0    0    0    1
 90      1     4       0    0    0    9
 91      1     7       0    5    0    0
 92      1     2       0    0    7    0
 93      1     2       0    0    0    3
 94      1     6       0    0    1    0
 95      1     8       5    0    0    0
 96      1     3       0    0    4    0
 97      1     6       0    0    0    2
 98      1     8       0    0    5    0
 99      1     3       6    0    0    0
100      1     7       3    0    0    0
101      1     4       0    0    4    0
102      1     2       0    0    8    0
103      1    10       1    0    0    0
104      1     7       0    0    5    0
105      1     8       0    0    2    0
106      1    10       0    0    3    0
107      1     4       0    9    0    0
108      1     3       0    0    3    0
109      1     2       3    0    0    0
110      1    10       0    0    6    0
111      1     4       0    9    0    0
112      1     2       0    0    0    7
113      1     4       0    4    0    0
114      1    10       0    0    5    0
115      1     8       7    0    0    0
116      1     4       0    0    0   10
117      1     3       0    3    0    0
118      1     5       0    8    0    0
119      1     2       0    1    0    0
120      1     9       0    7    0    0
121      1     3       0    3    0    0
122      1     0       0    0    0    0
************************************************************************
RESOURCEAVAILABILITIES:
  R 1  R 2  R 3  R 4
   19   22   18   22
************************************************************************
